(set-logic QF_NRA)
(set-info :source |Benchmarks generated from hycomp (https://es-static.fbk.eu/tools/hycomp/). BMC instances of non-linear hybrid automata taken from: Alessandro Cimatti, Sergio Mover, Stefano Tonetta, A quantifier-free SMT encoding of non-linear hybrid automata, FMCAD 2012 and Alessandro Cimatti, Sergio Mover, Stefano Tonetta, Quantier-free encoding of invariants for Hybrid Systems, Formal Methods in System Design. This instance solves a BMC problem of depth 3 and uses the quantifier free encoding with equivalences encoding. Contacts: Sergio Mover (mover@fbk.eu), Stefano Tonetta (tonettas@fbk.eu), Alessandro Cimatti (cimatti@fbk.eu).|)
(set-info :smt-lib-version 2.0)
(set-info :category "industrial")
(set-info :status unsat)
;; MathSAT API call trace
;; generated on Mon Mar 19 10:50:10 2012
(declare-fun b.counter.3__AT1 () Bool)
(declare-fun b.counter.1__AT3 () Bool)
(declare-fun b.EVENT.1__AT0 () Bool)
(declare-fun b.x__AT0 () Real)
(declare-fun b.time__AT3 () Real)
(declare-fun b.counter.2__AT3 () Bool)
(declare-fun b.speed_y__AT3 () Real)
(declare-fun b.speed_x__AT1 () Real)
(declare-fun b.delta__AT3 () Real)
(declare-fun b.counter.3__AT3 () Bool)
(declare-fun b.event_is_timed__AT2 () Bool)
(declare-fun b.time__AT1 () Real)
(declare-fun g__AT0 () Real)
(declare-fun b.y__AT0 () Real)
(declare-fun b.EVENT.0__AT1 () Bool)
(declare-fun b.speed_y__AT1 () Real)
(declare-fun b.EVENT.0__AT3 () Bool)
(declare-fun b.delta__AT1 () Real)
(declare-fun b.counter.0__AT0 () Bool)
(declare-fun b.EVENT.1__AT1 () Bool)
(declare-fun b.EVENT.1__AT3 () Bool)
(declare-fun b.counter.1__AT0 () Bool)
(declare-fun b.delta__AT0 () Real)
(declare-fun b.EVENT.0__AT0 () Bool)
(declare-fun b.time__AT2 () Real)
(declare-fun b.y__AT2 () Real)
(declare-fun b.x__AT1 () Real)
(declare-fun b.delta__AT2 () Real)
(declare-fun b.counter.0__AT2 () Bool)
(declare-fun b.x__AT2 () Real)
(declare-fun b.EVENT.0__AT2 () Bool)
(declare-fun b.counter.1__AT2 () Bool)
(declare-fun b.EVENT.1__AT2 () Bool)
(declare-fun b.counter.2__AT2 () Bool)
(declare-fun b.speed_y__AT0 () Real)
(declare-fun b.counter.3__AT2 () Bool)
(declare-fun b.speed_x__AT2 () Real)
(declare-fun b.speed_y__AT2 () Real)
(declare-fun b.counter.3__AT0 () Bool)
(declare-fun b.x__AT3 () Real)
(declare-fun b.event_is_timed__AT0 () Bool)
(declare-fun speed_loss__AT0 () Real)
(declare-fun b.y__AT1 () Real)
(declare-fun b.speed_x__AT3 () Real)
(declare-fun b.event_is_timed__AT1 () Bool)
(declare-fun b.counter.0__AT1 () Bool)
(declare-fun b.event_is_timed__AT3 () Bool)
(declare-fun b.speed_x__AT0 () Real)
(declare-fun b.counter.1__AT1 () Bool)
(declare-fun b.y__AT3 () Real)
(declare-fun b.time__AT0 () Real)
(declare-fun b.counter.2__AT0 () Bool)
(declare-fun b.counter.2__AT1 () Bool)
(declare-fun b.counter.0__AT3 () Bool)
(assert (let ((.def_74 (* (- 1.0) g__AT0)))
(let ((.def_75 (* (/ 1 2) .def_74)))
(let ((.def_83 (* 2.0 .def_75)))
(let ((.def_616 (* .def_83 b.delta__AT3)))
(let ((.def_617 (+ b.speed_y__AT3 .def_616)))
(let ((.def_621 (<= .def_617 0.0 )))
(let ((.def_620 (<= b.speed_y__AT3 0.0 )))
(let ((.def_622 (and .def_620 .def_621)))
(let ((.def_618 (<= 0.0 .def_617)))
(let ((.def_615 (<= 0.0 b.speed_y__AT3)))
(let ((.def_619 (and .def_615 .def_618)))
(let ((.def_623 (or .def_619 .def_622)))
(let ((.def_610 (* b.speed_y__AT3 b.delta__AT3)))
(let ((.def_608 (* b.delta__AT3 b.delta__AT3)))
(let ((.def_609 (* .def_75 .def_608)))
(let ((.def_611 (+ .def_609 .def_610)))
(let ((.def_612 (+ b.y__AT3 .def_611)))
(let ((.def_613 (<= 0.0 .def_612)))
(let ((.def_598 (<= 0.0 b.y__AT3)))
(let ((.def_614 (and .def_598 .def_613)))
(let ((.def_624 (and .def_614 .def_623)))
(let ((.def_55 (<= g__AT0 10.0 )))
(let ((.def_54 (<= 8.0 g__AT0)))
(let ((.def_56 (and .def_54 .def_55)))
(let ((.def_625 (and .def_56 .def_624)))
(let ((.def_63 (<= speed_loss__AT0 (/ 1 2))))
(let ((.def_60 (<= (/ 1 10) speed_loss__AT0)))
(let ((.def_64 (and .def_60 .def_63)))
(let ((.def_626 (and .def_64 .def_625)))
(let ((.def_326 (not b.counter.0__AT2)))
(let ((.def_314 (not b.counter.1__AT2)))
(let ((.def_602 (and .def_314 .def_326)))
(let ((.def_321 (not b.counter.2__AT2)))
(let ((.def_603 (and .def_321 .def_602)))
(let ((.def_336 (not b.counter.3__AT2)))
(let ((.def_604 (and .def_336 .def_603)))
(let ((.def_65 (and .def_56 .def_64)))
(let ((.def_599 (and .def_65 .def_598)))
(let ((.def_595 (not b.EVENT.0__AT3)))
(let ((.def_593 (not b.EVENT.1__AT3)))
(let ((.def_596 (or .def_593 .def_595)))
(let ((.def_6 (not b.counter.0__AT3)))
(let ((.def_4 (not b.counter.1__AT3)))
(let ((.def_586 (or .def_4 .def_6)))
(let ((.def_590 (or b.counter.3__AT3 .def_586)))
(let ((.def_587 (or b.counter.2__AT3 .def_586)))
(let ((.def_9 (not b.counter.2__AT3)))
(let ((.def_585 (or .def_6 .def_9)))
(let ((.def_588 (and .def_585 .def_587)))
(let ((.def_12 (not b.counter.3__AT3)))
(let ((.def_589 (or .def_12 .def_588)))
(let ((.def_591 (and .def_589 .def_590)))
(let ((.def_597 (and .def_591 .def_596)))
(let ((.def_600 (and .def_597 .def_599)))
(let ((.def_580 (<= 0.0 b.delta__AT2)))
(let ((.def_424 (not b.EVENT.0__AT2)))
(let ((.def_422 (not b.EVENT.1__AT2)))
(let ((.def_483 (and .def_422 .def_424)))
(let ((.def_484 (not .def_483)))
(let ((.def_581 (or .def_484 .def_580)))
(let ((.def_582 (or b.EVENT.1__AT2 .def_581)))
(let ((.def_529 (= b.counter.0__AT3 b.counter.0__AT2)))
(let ((.def_527 (= b.counter.1__AT3 b.counter.1__AT2)))
(let ((.def_525 (= b.counter.2__AT3 b.counter.2__AT2)))
(let ((.def_524 (= b.counter.3__AT3 b.counter.3__AT2)))
(let ((.def_526 (and .def_524 .def_525)))
(let ((.def_528 (and .def_526 .def_527)))
(let ((.def_530 (and .def_528 .def_529)))
(let ((.def_577 (or .def_484 .def_530)))
(let ((.def_578 (or b.EVENT.1__AT2 .def_577)))
(let ((.def_537 (= b.x__AT2 b.x__AT3)))
(let ((.def_534 (= b.y__AT2 b.y__AT3)))
(let ((.def_571 (and .def_534 .def_537)))
(let ((.def_464 (= b.speed_x__AT2 b.speed_x__AT3)))
(let ((.def_572 (and .def_464 .def_571)))
(let ((.def_523 (= b.speed_y__AT2 b.speed_y__AT3)))
(let ((.def_573 (and .def_523 .def_572)))
(let ((.def_568 (= b.delta__AT2 0.0 )))
(let ((.def_569 (and .def_483 .def_568)))
(let ((.def_570 (not .def_569)))
(let ((.def_574 (or .def_570 .def_573)))
(let ((.def_575 (or b.EVENT.1__AT2 .def_574)))
(let ((.def_548 (= b.time__AT2 b.time__AT3)))
(let ((.def_560 (and .def_537 .def_548)))
(let ((.def_561 (and .def_534 .def_560)))
(let ((.def_562 (and .def_464 .def_561)))
(let ((.def_563 (and .def_523 .def_562)))
(let ((.def_564 (and .def_530 .def_563)))
(let ((.def_565 (or .def_422 .def_564)))
(let ((.def_551 (* (- 1.0) b.time__AT3)))
(let ((.def_554 (+ b.delta__AT2 .def_551)))
(let ((.def_555 (+ b.time__AT2 .def_554)))
(let ((.def_556 (= .def_555 0.0 )))
(let ((.def_557 (or .def_484 .def_556)))
(let ((.def_558 (or b.EVENT.1__AT2 .def_557)))
(let ((.def_549 (or .def_483 .def_548)))
(let ((.def_550 (or b.EVENT.1__AT2 .def_549)))
(let ((.def_559 (and .def_550 .def_558)))
(let ((.def_566 (and .def_559 .def_565)))
(let ((.def_544 (= .def_484 b.event_is_timed__AT3)))
(let ((.def_542 (= b.event_is_timed__AT2 .def_483)))
(let ((.def_545 (and .def_542 .def_544)))
(let ((.def_531 (and .def_523 .def_530)))
(let ((.def_444 (<= 0.0 b.speed_y__AT2)))
(let ((.def_487 (not .def_444)))
(let ((.def_486 (= b.y__AT2 0.0 )))
(let ((.def_488 (and .def_486 .def_487)))
(let ((.def_532 (or .def_488 .def_531)))
(let ((.def_500 (or .def_6 b.counter.0__AT2)))
(let ((.def_499 (or b.counter.0__AT3 .def_326)))
(let ((.def_501 (and .def_499 .def_500)))
(let ((.def_502 (and .def_4 .def_501)))
(let ((.def_503 (or b.counter.1__AT2 .def_502)))
(let ((.def_498 (or b.counter.1__AT3 .def_314)))
(let ((.def_504 (and .def_498 .def_503)))
(let ((.def_515 (and .def_9 .def_504)))
(let ((.def_516 (or b.counter.2__AT2 .def_515)))
(let ((.def_510 (and .def_4 .def_326)))
(let ((.def_511 (or b.counter.1__AT2 .def_510)))
(let ((.def_512 (and .def_498 .def_511)))
(let ((.def_513 (and b.counter.2__AT3 .def_512)))
(let ((.def_514 (or .def_321 .def_513)))
(let ((.def_517 (and .def_514 .def_516)))
(let ((.def_518 (and b.counter.3__AT3 .def_517)))
(let ((.def_519 (or b.counter.3__AT2 .def_518)))
(let ((.def_505 (and b.counter.2__AT3 .def_504)))
(let ((.def_506 (or b.counter.2__AT2 .def_505)))
(let ((.def_494 (or b.counter.1__AT3 b.counter.1__AT2)))
(let ((.def_492 (and .def_4 b.counter.0__AT3)))
(let ((.def_493 (or .def_314 .def_492)))
(let ((.def_495 (and .def_493 .def_494)))
(let ((.def_496 (and .def_9 .def_495)))
(let ((.def_497 (or .def_321 .def_496)))
(let ((.def_507 (and .def_497 .def_506)))
(let ((.def_508 (and .def_12 .def_507)))
(let ((.def_509 (or .def_336 .def_508)))
(let ((.def_520 (and .def_509 .def_519)))
(let ((.def_289 (* (- 1.0) b.speed_y__AT2)))
(let ((.def_133 (* (- 1.0) speed_loss__AT0)))
(let ((.def_134 (+ 1.0 .def_133)))
(let ((.def_490 (* .def_134 .def_289)))
(let ((.def_491 (= b.speed_y__AT3 .def_490)))
(let ((.def_521 (and .def_491 .def_520)))
(let ((.def_489 (not .def_488)))
(let ((.def_522 (or .def_489 .def_521)))
(let ((.def_533 (and .def_522 .def_532)))
(let ((.def_535 (and .def_533 .def_534)))
(let ((.def_536 (and .def_464 .def_535)))
(let ((.def_538 (and .def_536 .def_537)))
(let ((.def_539 (or .def_483 .def_538)))
(let ((.def_540 (or b.EVENT.1__AT2 .def_539)))
(let ((.def_474 (* (- 1.0) b.y__AT3)))
(let ((.def_439 (* b.speed_y__AT2 b.delta__AT2)))
(let ((.def_478 (+ .def_439 .def_474)))
(let ((.def_437 (* b.delta__AT2 b.delta__AT2)))
(let ((.def_438 (* .def_75 .def_437)))
(let ((.def_479 (+ .def_438 .def_478)))
(let ((.def_480 (+ b.y__AT2 .def_479)))
(let ((.def_481 (= .def_480 0.0 )))
(let ((.def_468 (* (- 1.0) b.speed_y__AT3)))
(let ((.def_466 (* .def_74 b.delta__AT2)))
(let ((.def_469 (+ .def_466 .def_468)))
(let ((.def_470 (+ b.speed_y__AT2 .def_469)))
(let ((.def_471 (= .def_470 0.0 )))
(let ((.def_459 (* (- 1.0) b.x__AT3)))
(let ((.def_457 (* b.speed_x__AT2 b.delta__AT2)))
(let ((.def_460 (+ .def_457 .def_459)))
(let ((.def_461 (+ b.x__AT2 .def_460)))
(let ((.def_462 (= .def_461 0.0 )))
(let ((.def_465 (and .def_462 .def_464)))
(let ((.def_472 (and .def_465 .def_471)))
(let ((.def_482 (and .def_472 .def_481)))
(let ((.def_485 (or .def_482 .def_484)))
(let ((.def_541 (and .def_485 .def_540)))
(let ((.def_546 (and .def_541 .def_545)))
(let ((.def_567 (and .def_546 .def_566)))
(let ((.def_576 (and .def_567 .def_575)))
(let ((.def_579 (and .def_576 .def_578)))
(let ((.def_583 (and .def_579 .def_582)))
(let ((.def_584 (and .def_422 .def_583)))
(let ((.def_601 (and .def_584 .def_600)))
(let ((.def_605 (and .def_601 .def_604)))
(let ((.def_445 (* .def_83 b.delta__AT2)))
(let ((.def_446 (+ b.speed_y__AT2 .def_445)))
(let ((.def_450 (<= .def_446 0.0 )))
(let ((.def_449 (<= b.speed_y__AT2 0.0 )))
(let ((.def_451 (and .def_449 .def_450)))
(let ((.def_447 (<= 0.0 .def_446)))
(let ((.def_448 (and .def_444 .def_447)))
(let ((.def_452 (or .def_448 .def_451)))
(let ((.def_440 (+ .def_438 .def_439)))
(let ((.def_441 (+ b.y__AT2 .def_440)))
(let ((.def_442 (<= 0.0 .def_441)))
(let ((.def_427 (<= 0.0 b.y__AT2)))
(let ((.def_443 (and .def_427 .def_442)))
(let ((.def_453 (and .def_443 .def_452)))
(let ((.def_454 (and .def_56 .def_453)))
(let ((.def_455 (and .def_64 .def_454)))
(let ((.def_150 (not b.counter.0__AT1)))
(let ((.def_138 (not b.counter.1__AT1)))
(let ((.def_431 (and .def_138 .def_150)))
(let ((.def_145 (not b.counter.2__AT1)))
(let ((.def_432 (and .def_145 .def_431)))
(let ((.def_160 (not b.counter.3__AT1)))
(let ((.def_433 (and .def_160 .def_432)))
(let ((.def_428 (and .def_65 .def_427)))
(let ((.def_425 (or .def_422 .def_424)))
(let ((.def_415 (or .def_314 .def_326)))
(let ((.def_419 (or b.counter.3__AT2 .def_415)))
(let ((.def_416 (or b.counter.2__AT2 .def_415)))
(let ((.def_414 (or .def_321 .def_326)))
(let ((.def_417 (and .def_414 .def_416)))
(let ((.def_418 (or .def_336 .def_417)))
(let ((.def_420 (and .def_418 .def_419)))
(let ((.def_426 (and .def_420 .def_425)))
(let ((.def_429 (and .def_426 .def_428)))
(let ((.def_409 (<= 0.0 b.delta__AT1)))
(let ((.def_248 (not b.EVENT.0__AT1)))
(let ((.def_246 (not b.EVENT.1__AT1)))
(let ((.def_304 (and .def_246 .def_248)))
(let ((.def_305 (not .def_304)))
(let ((.def_410 (or .def_305 .def_409)))
(let ((.def_411 (or b.EVENT.1__AT1 .def_410)))
(let ((.def_358 (= b.counter.0__AT1 b.counter.0__AT2)))
(let ((.def_356 (= b.counter.1__AT1 b.counter.1__AT2)))
(let ((.def_354 (= b.counter.2__AT1 b.counter.2__AT2)))
(let ((.def_353 (= b.counter.3__AT1 b.counter.3__AT2)))
(let ((.def_355 (and .def_353 .def_354)))
(let ((.def_357 (and .def_355 .def_356)))
(let ((.def_359 (and .def_357 .def_358)))
(let ((.def_406 (or .def_305 .def_359)))
(let ((.def_407 (or b.EVENT.1__AT1 .def_406)))
(let ((.def_366 (= b.x__AT1 b.x__AT2)))
(let ((.def_363 (= b.y__AT1 b.y__AT2)))
(let ((.def_400 (and .def_363 .def_366)))
(let ((.def_285 (= b.speed_x__AT1 b.speed_x__AT2)))
(let ((.def_401 (and .def_285 .def_400)))
(let ((.def_352 (= b.speed_y__AT1 b.speed_y__AT2)))
(let ((.def_402 (and .def_352 .def_401)))
(let ((.def_397 (= b.delta__AT1 0.0 )))
(let ((.def_398 (and .def_304 .def_397)))
(let ((.def_399 (not .def_398)))
(let ((.def_403 (or .def_399 .def_402)))
(let ((.def_404 (or b.EVENT.1__AT1 .def_403)))
(let ((.def_377 (= b.time__AT1 b.time__AT2)))
(let ((.def_389 (and .def_366 .def_377)))
(let ((.def_390 (and .def_363 .def_389)))
(let ((.def_391 (and .def_285 .def_390)))
(let ((.def_392 (and .def_352 .def_391)))
(let ((.def_393 (and .def_359 .def_392)))
(let ((.def_394 (or .def_246 .def_393)))
(let ((.def_380 (* (- 1.0) b.time__AT2)))
(let ((.def_383 (+ b.delta__AT1 .def_380)))
(let ((.def_384 (+ b.time__AT1 .def_383)))
(let ((.def_385 (= .def_384 0.0 )))
(let ((.def_386 (or .def_305 .def_385)))
(let ((.def_387 (or b.EVENT.1__AT1 .def_386)))
(let ((.def_378 (or .def_304 .def_377)))
(let ((.def_379 (or b.EVENT.1__AT1 .def_378)))
(let ((.def_388 (and .def_379 .def_387)))
(let ((.def_395 (and .def_388 .def_394)))
(let ((.def_373 (= .def_305 b.event_is_timed__AT2)))
(let ((.def_371 (= b.event_is_timed__AT1 .def_304)))
(let ((.def_374 (and .def_371 .def_373)))
(let ((.def_360 (and .def_352 .def_359)))
(let ((.def_265 (<= 0.0 b.speed_y__AT1)))
(let ((.def_308 (not .def_265)))
(let ((.def_307 (= b.y__AT1 0.0 )))
(let ((.def_309 (and .def_307 .def_308)))
(let ((.def_361 (or .def_309 .def_360)))
(let ((.def_327 (or b.counter.0__AT1 .def_326)))
(let ((.def_325 (or .def_150 b.counter.0__AT2)))
(let ((.def_328 (and .def_325 .def_327)))
(let ((.def_329 (and .def_314 .def_328)))
(let ((.def_330 (or b.counter.1__AT1 .def_329)))
(let ((.def_324 (or .def_138 b.counter.1__AT2)))
(let ((.def_331 (and .def_324 .def_330)))
(let ((.def_344 (and .def_321 .def_331)))
(let ((.def_345 (or b.counter.2__AT1 .def_344)))
(let ((.def_339 (and .def_150 .def_314)))
(let ((.def_340 (or b.counter.1__AT1 .def_339)))
(let ((.def_341 (and .def_324 .def_340)))
(let ((.def_342 (and b.counter.2__AT2 .def_341)))
(let ((.def_343 (or .def_145 .def_342)))
(let ((.def_346 (and .def_343 .def_345)))
(let ((.def_347 (and b.counter.3__AT2 .def_346)))
(let ((.def_348 (or b.counter.3__AT1 .def_347)))
(let ((.def_332 (and b.counter.2__AT2 .def_331)))
(let ((.def_333 (or b.counter.2__AT1 .def_332)))
(let ((.def_318 (or b.counter.1__AT1 b.counter.1__AT2)))
(let ((.def_316 (and .def_314 b.counter.0__AT2)))
(let ((.def_317 (or .def_138 .def_316)))
(let ((.def_319 (and .def_317 .def_318)))
(let ((.def_322 (and .def_319 .def_321)))
(let ((.def_323 (or .def_145 .def_322)))
(let ((.def_334 (and .def_323 .def_333)))
(let ((.def_337 (and .def_334 .def_336)))
(let ((.def_338 (or .def_160 .def_337)))
(let ((.def_349 (and .def_338 .def_348)))
(let ((.def_111 (* (- 1.0) b.speed_y__AT1)))
(let ((.def_311 (* .def_111 .def_134)))
(let ((.def_312 (= b.speed_y__AT2 .def_311)))
(let ((.def_350 (and .def_312 .def_349)))
(let ((.def_310 (not .def_309)))
(let ((.def_351 (or .def_310 .def_350)))
(let ((.def_362 (and .def_351 .def_361)))
(let ((.def_364 (and .def_362 .def_363)))
(let ((.def_365 (and .def_285 .def_364)))
(let ((.def_367 (and .def_365 .def_366)))
(let ((.def_368 (or .def_304 .def_367)))
(let ((.def_369 (or b.EVENT.1__AT1 .def_368)))
(let ((.def_295 (* (- 1.0) b.y__AT2)))
(let ((.def_260 (* b.speed_y__AT1 b.delta__AT1)))
(let ((.def_299 (+ .def_260 .def_295)))
(let ((.def_258 (* b.delta__AT1 b.delta__AT1)))
(let ((.def_259 (* .def_75 .def_258)))
(let ((.def_300 (+ .def_259 .def_299)))
(let ((.def_301 (+ b.y__AT1 .def_300)))
(let ((.def_302 (= .def_301 0.0 )))
(let ((.def_287 (* .def_74 b.delta__AT1)))
(let ((.def_290 (+ .def_287 .def_289)))
(let ((.def_291 (+ b.speed_y__AT1 .def_290)))
(let ((.def_292 (= .def_291 0.0 )))
(let ((.def_280 (* (- 1.0) b.x__AT2)))
(let ((.def_278 (* b.speed_x__AT1 b.delta__AT1)))
(let ((.def_281 (+ .def_278 .def_280)))
(let ((.def_282 (+ b.x__AT1 .def_281)))
(let ((.def_283 (= .def_282 0.0 )))
(let ((.def_286 (and .def_283 .def_285)))
(let ((.def_293 (and .def_286 .def_292)))
(let ((.def_303 (and .def_293 .def_302)))
(let ((.def_306 (or .def_303 .def_305)))
(let ((.def_370 (and .def_306 .def_369)))
(let ((.def_375 (and .def_370 .def_374)))
(let ((.def_396 (and .def_375 .def_395)))
(let ((.def_405 (and .def_396 .def_404)))
(let ((.def_408 (and .def_405 .def_407)))
(let ((.def_412 (and .def_408 .def_411)))
(let ((.def_413 (and .def_246 .def_412)))
(let ((.def_430 (and .def_413 .def_429)))
(let ((.def_434 (and .def_430 .def_433)))
(let ((.def_266 (* .def_83 b.delta__AT1)))
(let ((.def_267 (+ b.speed_y__AT1 .def_266)))
(let ((.def_271 (<= .def_267 0.0 )))
(let ((.def_270 (<= b.speed_y__AT1 0.0 )))
(let ((.def_272 (and .def_270 .def_271)))
(let ((.def_268 (<= 0.0 .def_267)))
(let ((.def_269 (and .def_265 .def_268)))
(let ((.def_273 (or .def_269 .def_272)))
(let ((.def_261 (+ .def_259 .def_260)))
(let ((.def_262 (+ b.y__AT1 .def_261)))
(let ((.def_263 (<= 0.0 .def_262)))
(let ((.def_251 (<= 0.0 b.y__AT1)))
(let ((.def_264 (and .def_251 .def_263)))
(let ((.def_274 (and .def_264 .def_273)))
(let ((.def_275 (and .def_56 .def_274)))
(let ((.def_276 (and .def_64 .def_275)))
(let ((.def_252 (and .def_65 .def_251)))
(let ((.def_249 (or .def_246 .def_248)))
(let ((.def_239 (or .def_138 .def_150)))
(let ((.def_243 (or b.counter.3__AT1 .def_239)))
(let ((.def_240 (or b.counter.2__AT1 .def_239)))
(let ((.def_238 (or .def_145 .def_150)))
(let ((.def_241 (and .def_238 .def_240)))
(let ((.def_242 (or .def_160 .def_241)))
(let ((.def_244 (and .def_242 .def_243)))
(let ((.def_250 (and .def_244 .def_249)))
(let ((.def_253 (and .def_250 .def_252)))
(let ((.def_233 (<= 0.0 b.delta__AT0)))
(let ((.def_49 (not b.EVENT.0__AT0)))
(let ((.def_47 (not b.EVENT.1__AT0)))
(let ((.def_125 (and .def_47 .def_49)))
(let ((.def_126 (not .def_125)))
(let ((.def_234 (or .def_126 .def_233)))
(let ((.def_235 (or b.EVENT.1__AT0 .def_234)))
(let ((.def_182 (= b.counter.0__AT0 b.counter.0__AT1)))
(let ((.def_180 (= b.counter.1__AT0 b.counter.1__AT1)))
(let ((.def_178 (= b.counter.2__AT0 b.counter.2__AT1)))
(let ((.def_177 (= b.counter.3__AT0 b.counter.3__AT1)))
(let ((.def_179 (and .def_177 .def_178)))
(let ((.def_181 (and .def_179 .def_180)))
(let ((.def_183 (and .def_181 .def_182)))
(let ((.def_230 (or .def_126 .def_183)))
(let ((.def_231 (or b.EVENT.1__AT0 .def_230)))
(let ((.def_190 (= b.x__AT1 b.x__AT0)))
(let ((.def_187 (= b.y__AT0 b.y__AT1)))
(let ((.def_224 (and .def_187 .def_190)))
(let ((.def_107 (= b.speed_x__AT0 b.speed_x__AT1)))
(let ((.def_225 (and .def_107 .def_224)))
(let ((.def_176 (= b.speed_y__AT0 b.speed_y__AT1)))
(let ((.def_226 (and .def_176 .def_225)))
(let ((.def_221 (= b.delta__AT0 0.0 )))
(let ((.def_222 (and .def_125 .def_221)))
(let ((.def_223 (not .def_222)))
(let ((.def_227 (or .def_223 .def_226)))
(let ((.def_228 (or b.EVENT.1__AT0 .def_227)))
(let ((.def_201 (= b.time__AT0 b.time__AT1)))
(let ((.def_213 (and .def_190 .def_201)))
(let ((.def_214 (and .def_187 .def_213)))
(let ((.def_215 (and .def_107 .def_214)))
(let ((.def_216 (and .def_176 .def_215)))
(let ((.def_217 (and .def_183 .def_216)))
(let ((.def_218 (or .def_47 .def_217)))
(let ((.def_204 (* (- 1.0) b.time__AT1)))
(let ((.def_207 (+ b.delta__AT0 .def_204)))
(let ((.def_208 (+ b.time__AT0 .def_207)))
(let ((.def_209 (= .def_208 0.0 )))
(let ((.def_210 (or .def_126 .def_209)))
(let ((.def_211 (or b.EVENT.1__AT0 .def_210)))
(let ((.def_202 (or .def_125 .def_201)))
(let ((.def_203 (or b.EVENT.1__AT0 .def_202)))
(let ((.def_212 (and .def_203 .def_211)))
(let ((.def_219 (and .def_212 .def_218)))
(let ((.def_197 (= .def_126 b.event_is_timed__AT1)))
(let ((.def_195 (= b.event_is_timed__AT0 .def_125)))
(let ((.def_198 (and .def_195 .def_197)))
(let ((.def_184 (and .def_176 .def_183)))
(let ((.def_82 (<= 0.0 b.speed_y__AT0)))
(let ((.def_129 (not .def_82)))
(let ((.def_128 (= b.y__AT0 0.0 )))
(let ((.def_130 (and .def_128 .def_129)))
(let ((.def_185 (or .def_130 .def_184)))
(let ((.def_151 (or b.counter.0__AT0 .def_150)))
(let ((.def_30 (not b.counter.0__AT0)))
(let ((.def_149 (or .def_30 b.counter.0__AT1)))
(let ((.def_152 (and .def_149 .def_151)))
(let ((.def_153 (and .def_138 .def_152)))
(let ((.def_154 (or b.counter.1__AT0 .def_153)))
(let ((.def_28 (not b.counter.1__AT0)))
(let ((.def_148 (or .def_28 b.counter.1__AT1)))
(let ((.def_155 (and .def_148 .def_154)))
(let ((.def_168 (and .def_145 .def_155)))
(let ((.def_169 (or b.counter.2__AT0 .def_168)))
(let ((.def_163 (and .def_30 .def_138)))
(let ((.def_164 (or b.counter.1__AT0 .def_163)))
(let ((.def_165 (and .def_148 .def_164)))
(let ((.def_166 (and b.counter.2__AT1 .def_165)))
(let ((.def_33 (not b.counter.2__AT0)))
(let ((.def_167 (or .def_33 .def_166)))
(let ((.def_170 (and .def_167 .def_169)))
(let ((.def_171 (and b.counter.3__AT1 .def_170)))
(let ((.def_172 (or b.counter.3__AT0 .def_171)))
(let ((.def_156 (and b.counter.2__AT1 .def_155)))
(let ((.def_157 (or b.counter.2__AT0 .def_156)))
(let ((.def_142 (or b.counter.1__AT0 b.counter.1__AT1)))
(let ((.def_140 (and .def_138 b.counter.0__AT1)))
(let ((.def_141 (or .def_28 .def_140)))
(let ((.def_143 (and .def_141 .def_142)))
(let ((.def_146 (and .def_143 .def_145)))
(let ((.def_147 (or .def_33 .def_146)))
(let ((.def_158 (and .def_147 .def_157)))
(let ((.def_161 (and .def_158 .def_160)))
(let ((.def_36 (not b.counter.3__AT0)))
(let ((.def_162 (or .def_36 .def_161)))
(let ((.def_173 (and .def_162 .def_172)))
(let ((.def_132 (* (- 1.0) b.speed_y__AT0)))
(let ((.def_135 (* .def_132 .def_134)))
(let ((.def_136 (= b.speed_y__AT1 .def_135)))
(let ((.def_174 (and .def_136 .def_173)))
(let ((.def_131 (not .def_130)))
(let ((.def_175 (or .def_131 .def_174)))
(let ((.def_186 (and .def_175 .def_185)))
(let ((.def_188 (and .def_186 .def_187)))
(let ((.def_189 (and .def_107 .def_188)))
(let ((.def_191 (and .def_189 .def_190)))
(let ((.def_192 (or .def_125 .def_191)))
(let ((.def_193 (or b.EVENT.1__AT0 .def_192)))
(let ((.def_117 (* (- 1.0) b.y__AT1)))
(let ((.def_77 (* b.speed_y__AT0 b.delta__AT0)))
(let ((.def_120 (+ .def_77 .def_117)))
(let ((.def_72 (* b.delta__AT0 b.delta__AT0)))
(let ((.def_76 (* .def_72 .def_75)))
(let ((.def_121 (+ .def_76 .def_120)))
(let ((.def_122 (+ b.y__AT0 .def_121)))
(let ((.def_123 (= .def_122 0.0 )))
(let ((.def_109 (* b.delta__AT0 .def_74)))
(let ((.def_112 (+ .def_109 .def_111)))
(let ((.def_113 (+ b.speed_y__AT0 .def_112)))
(let ((.def_114 (= .def_113 0.0 )))
(let ((.def_99 (* (- 1.0) b.x__AT1)))
(let ((.def_103 (+ .def_99 b.x__AT0)))
(let ((.def_97 (* b.delta__AT0 b.speed_x__AT0)))
(let ((.def_104 (+ .def_97 .def_103)))
(let ((.def_105 (= .def_104 0.0 )))
(let ((.def_108 (and .def_105 .def_107)))
(let ((.def_115 (and .def_108 .def_114)))
(let ((.def_124 (and .def_115 .def_123)))
(let ((.def_127 (or .def_124 .def_126)))
(let ((.def_194 (and .def_127 .def_193)))
(let ((.def_199 (and .def_194 .def_198)))
(let ((.def_220 (and .def_199 .def_219)))
(let ((.def_229 (and .def_220 .def_228)))
(let ((.def_232 (and .def_229 .def_231)))
(let ((.def_236 (and .def_232 .def_235)))
(let ((.def_237 (and .def_47 .def_236)))
(let ((.def_254 (and .def_237 .def_253)))
(let ((.def_31 (and .def_28 .def_30)))
(let ((.def_34 (and .def_31 .def_33)))
(let ((.def_37 (and .def_34 .def_36)))
(let ((.def_255 (and .def_37 .def_254)))
(let ((.def_84 (* b.delta__AT0 .def_83)))
(let ((.def_85 (+ b.speed_y__AT0 .def_84)))
(let ((.def_89 (<= .def_85 0.0 )))
(let ((.def_88 (<= b.speed_y__AT0 0.0 )))
(let ((.def_90 (and .def_88 .def_89)))
(let ((.def_86 (<= 0.0 .def_85)))
(let ((.def_87 (and .def_82 .def_86)))
(let ((.def_91 (or .def_87 .def_90)))
(let ((.def_78 (+ .def_76 .def_77)))
(let ((.def_79 (+ b.y__AT0 .def_78)))
(let ((.def_80 (<= 0.0 .def_79)))
(let ((.def_66 (<= 0.0 b.y__AT0)))
(let ((.def_81 (and .def_66 .def_80)))
(let ((.def_92 (and .def_81 .def_91)))
(let ((.def_93 (and .def_56 .def_92)))
(let ((.def_94 (and .def_64 .def_93)))
(let ((.def_67 (and .def_65 .def_66)))
(let ((.def_50 (or .def_47 .def_49)))
(let ((.def_40 (or .def_28 .def_30)))
(let ((.def_44 (or b.counter.3__AT0 .def_40)))
(let ((.def_41 (or b.counter.2__AT0 .def_40)))
(let ((.def_39 (or .def_30 .def_33)))
(let ((.def_42 (and .def_39 .def_41)))
(let ((.def_43 (or .def_36 .def_42)))
(let ((.def_45 (and .def_43 .def_44)))
(let ((.def_51 (and .def_45 .def_50)))
(let ((.def_68 (and .def_51 .def_67)))
(let ((.def_25 (= b.speed_y__AT0 0.0 )))
(let ((.def_22 (= b.y__AT0 10.0 )))
(let ((.def_17 (= b.time__AT0 0.0 )))
(let ((.def_19 (and .def_17 b.event_is_timed__AT0)))
(let ((.def_23 (and .def_19 .def_22)))
(let ((.def_26 (and .def_23 .def_25)))
(let ((.def_38 (and .def_26 .def_37)))
(let ((.def_69 (and .def_38 .def_68)))
(let ((.def_7 (and .def_4 .def_6)))
(let ((.def_10 (and .def_7 .def_9)))
(let ((.def_13 (and .def_10 .def_12)))
(let ((.def_14 (not .def_13)))
(let ((.def_70 (and .def_14 .def_69)))
(let ((.def_95 (and .def_70 .def_94)))
(let ((.def_256 (and .def_95 .def_255)))
(let ((.def_277 (and .def_256 .def_276)))
(let ((.def_435 (and .def_277 .def_434)))
(let ((.def_456 (and .def_435 .def_455)))
(let ((.def_606 (and .def_456 .def_605)))
(let ((.def_627 (and .def_606 .def_626)))
.def_627))))))))))))))))))))))))))))))))))))))))))))))))))))))))))))))))))))))))))))))))))))))))))))))))))))))))))))))))))))))))))))))))))))))))))))))))))))))))))))))))))))))))))))))))))))))))))))))))))))))))))))))))))))))))))))))))))))))))))))))))))))))))))))))))))))))))))))))))))))))))))))))))))))))))))))))))))))))))))))))))))))))))))))))))))))))))))))))))))))))))))))))))))))))))))))))))))))))))))))))))))))))))))))))))))))))))))))))))))))))))))))))))))))))))))))))))))))))))))))))))))))))))))))))))))))))))))))))))))))))))))))))))))))))))))))))))))))
(check-sat)
(exit)
